(set-logic QF_LRA)
(declare-fun X0 () Real )
(declare-fun Y0 () Real )
(declare-fun X1 () Real )
(declare-fun Y1 () Real )
(declare-fun X2 () Real )
(declare-fun Y2 () Real )
(declare-fun X3 () Real )
(declare-fun Y3 () Real )
(declare-fun X4 () Real )
(declare-fun Y4 () Real )
(declare-fun X5 () Real )
(declare-fun Y5 () Real )
(declare-fun Z () Real )
(declare-fun k () Real )
(assert (let
(( $goal (>= Z k) ))
(let
((
$phi ( and 
( or ( <= ( + X0 11 ) X1 )  ( <= ( + X1 19 ) X0 )  ( <= ( + Y0 55 ) Y1 )  ( <= ( + Y1 100 ) Y0 )  )
( or ( <= ( + X0 11 ) X2 )  ( <= ( + X2 4 ) X0 )  ( <= ( + Y0 55 ) Y2 )  ( <= ( + Y2 42 ) Y0 )  )
( or ( <= ( + X0 11 ) X3 )  ( <= ( + X3 94 ) X0 )  ( <= ( + Y0 55 ) Y3 )  ( <= ( + Y3 35 ) Y0 )  )
( or ( <= ( + X0 11 ) X4 )  ( <= ( + X4 23 ) X0 )  ( <= ( + Y0 55 ) Y4 )  ( <= ( + Y4 83 ) Y0 )  )
( or ( <= ( + X0 11 ) X5 )  ( <= ( + X5 39 ) X0 )  ( <= ( + Y0 55 ) Y5 )  ( <= ( + Y5 50 ) Y0 )  )
( or ( <= ( + X1 19 ) X2 )  ( <= ( + X2 4 ) X1 )  ( <= ( + Y1 100 ) Y2 )  ( <= ( + Y2 42 ) Y1 )  )
( or ( <= ( + X1 19 ) X3 )  ( <= ( + X3 94 ) X1 )  ( <= ( + Y1 100 ) Y3 )  ( <= ( + Y3 35 ) Y1 )  )
( or ( <= ( + X1 19 ) X4 )  ( <= ( + X4 23 ) X1 )  ( <= ( + Y1 100 ) Y4 )  ( <= ( + Y4 83 ) Y1 )  )
( or ( <= ( + X1 19 ) X5 )  ( <= ( + X5 39 ) X1 )  ( <= ( + Y1 100 ) Y5 )  ( <= ( + Y5 50 ) Y1 )  )
( or ( <= ( + X2 4 ) X3 )  ( <= ( + X3 94 ) X2 )  ( <= ( + Y2 42 ) Y3 )  ( <= ( + Y3 35 ) Y2 )  )
( or ( <= ( + X2 4 ) X4 )  ( <= ( + X4 23 ) X2 )  ( <= ( + Y2 42 ) Y4 )  ( <= ( + Y4 83 ) Y2 )  )
( or ( <= ( + X2 4 ) X5 )  ( <= ( + X5 39 ) X2 )  ( <= ( + Y2 42 ) Y5 )  ( <= ( + Y5 50 ) Y2 )  )
( or ( <= ( + X3 94 ) X4 )  ( <= ( + X4 23 ) X3 )  ( <= ( + Y3 35 ) Y4 )  ( <= ( + Y4 83 ) Y3 )  )
( or ( <= ( + X3 94 ) X5 )  ( <= ( + X5 39 ) X3 )  ( <= ( + Y3 35 ) Y5 )  ( <= ( + Y5 50 ) Y3 )  )
( or ( <= ( + X4 23 ) X5 )  ( <= ( + X5 39 ) X4 )  ( <= ( + Y4 83 ) Y5 )  ( <= ( + Y5 50 ) Y4 )  )
( >= X0 0)
( <= ( + X0 11) Z)
( >= Y0 0)
( <= ( + Y0 55 ) 122)
( >= X1 0)
( <= ( + X1 19) Z)
( >= Y1 0)
( <= ( + Y1 100 ) 122)
( >= X2 0)
( <= ( + X2 4) Z)
( >= Y2 0)
( <= ( + Y2 42 ) 122)
( >= X3 0)
( <= ( + X3 94) Z)
( >= Y3 0)
( <= ( + Y3 35 ) 122)
( >= X4 0)
( <= ( + X4 23) Z)
( >= Y4 0)
( <= ( + Y4 83 ) 122)
( >= X5 0)
( <= ( + X5 39) Z)
( >= Y5 0)
( <= ( + Y5 50 ) 122)
) )
)(=> $phi $goal))))